WARNING: for repeatability, setting FPU to use double precision
============================[ Problem Statistics ]=============================
|                                                                             |
|  Number of variables:        158617                                         |
|  Number of clauses:          372550                                         |
|  Parse time:                   0.09 s                                       |
|                                                                             |
c ============================[ Search Statistics ]==============================
c | Conflicts |          ORIGINAL         |          LEARNT          | Progress |
c |           |    Vars  Clauses Literals |    Limit  Clauses Lit/Cl |          |
c ===============================================================================
c Switched to VSIDS.
c Switched to LRB.
c Switched to VSIDS.
c Switched to LRB.
c Switched to VSIDS.
c Switched to LRB.
c Switched to VSIDS.
c Switched to LRB.
c Switched to VSIDS.
c Switched to LRB.
c Switched to VSIDS.
c Switched to LRB.
c Switched to VSIDS.
c Switched to LRB.
c Switched to VSIDS.
c Switched to LRB.
c Switched to VSIDS.
c Switched to LRB.
c Switched to VSIDS.
c Switched to LRB.
c Switched to VSIDS.
c Switched to LRB.
c Switched to VSIDS.
c ===============================================================================
restarts                  : 10552
conflicts                 : 2690380        (863 /sec)
decisions                 : 39309102       (0.00 % random) (12611 /sec)
propagations              : 7517799419     (2411836 /sec)
conflict literals         : 325150695      (37.52 % deleted)

conflicts w/ DIP found    : 1733394        (64.43 % of conflicts)
conflicts w/ dangerous DIP: 0              (0.00 % of conflicts)
conflicts w/ DIP-learning : 1441           (0.05 % of conflicts)
decisions on ext vars     : 1084           (0.00 % of decisions)
total ext vars            : 450         
tried delete ext vars     : 0           
deleted ext vars          : 0           
max ext vars              : 450         

Memory used               : 326.00 MB
CPU time                  : 3117.04 s
DIP computation time      : 341.059 s (10.94 % of total time)
ER_sel time               : 4.76492 s
ER_add time               : 0.004378 s
ER_delC time              : 0 s
ER_delV time              : 0 s
ER_sub time               : 5.84414 s
ER_stat time              : 0 s

UNSATISFIABLE
